p cnf 484 1210
-1 122 0
-12 123 0
-23 124 0
-34 125 0
-45 126 0
-56 127 0
-67 128 0
-78 129 0
-89 130 0
-100 131 0
-122 123 0
-123 124 0
-124 125 0
-125 126 0
-126 127 0
-127 128 0
-128 129 0
-129 130 0
-130 131 0
12 122 -123 0
23 123 -124 0
34 124 -125 0
45 125 -126 0
56 126 -127 0
67 127 -128 0
78 128 -129 0
89 129 -130 0
100 130 -131 0
1 -122 0
131 111 0
-12 -122 0
-23 -123 0
-34 -124 0
-45 -125 0
-56 -126 0
-67 -127 0
-78 -128 0
-89 -129 0
-100 -130 0
-111 -131 0
-2 132 0
-13 133 0
-24 134 0
-35 135 0
-46 136 0
-57 137 0
-68 138 0
-79 139 0
-90 140 0
-101 141 0
-132 133 0
-133 134 0
-134 135 0
-135 136 0
-136 137 0
-137 138 0
-138 139 0
-139 140 0
-140 141 0
13 132 -133 0
24 133 -134 0
35 134 -135 0
46 135 -136 0
57 136 -137 0
68 137 -138 0
79 138 -139 0
90 139 -140 0
101 140 -141 0
2 -132 0
141 112 0
-13 -132 0
-24 -133 0
-35 -134 0
-46 -135 0
-57 -136 0
-68 -137 0
-79 -138 0
-90 -139 0
-101 -140 0
-112 -141 0
-3 142 0
-14 143 0
-25 144 0
-36 145 0
-47 146 0
-58 147 0
-69 148 0
-80 149 0
-91 150 0
-102 151 0
-142 143 0
-143 144 0
-144 145 0
-145 146 0
-146 147 0
-147 148 0
-148 149 0
-149 150 0
-150 151 0
14 142 -143 0
25 143 -144 0
36 144 -145 0
47 145 -146 0
58 146 -147 0
69 147 -148 0
80 148 -149 0
91 149 -150 0
102 150 -151 0
3 -142 0
151 113 0
-14 -142 0
-25 -143 0
-36 -144 0
-47 -145 0
-58 -146 0
-69 -147 0
-80 -148 0
-91 -149 0
-102 -150 0
-113 -151 0
-4 152 0
-15 153 0
-26 154 0
-37 155 0
-48 156 0
-59 157 0
-70 158 0
-81 159 0
-92 160 0
-103 161 0
-152 153 0
-153 154 0
-154 155 0
-155 156 0
-156 157 0
-157 158 0
-158 159 0
-159 160 0
-160 161 0
15 152 -153 0
26 153 -154 0
37 154 -155 0
48 155 -156 0
59 156 -157 0
70 157 -158 0
81 158 -159 0
92 159 -160 0
103 160 -161 0
4 -152 0
161 114 0
-15 -152 0
-26 -153 0
-37 -154 0
-48 -155 0
-59 -156 0
-70 -157 0
-81 -158 0
-92 -159 0
-103 -160 0
-114 -161 0
-5 162 0
-16 163 0
-27 164 0
-38 165 0
-49 166 0
-60 167 0
-71 168 0
-82 169 0
-93 170 0
-104 171 0
-162 163 0
-163 164 0
-164 165 0
-165 166 0
-166 167 0
-167 168 0
-168 169 0
-169 170 0
-170 171 0
16 162 -163 0
27 163 -164 0
38 164 -165 0
49 165 -166 0
60 166 -167 0
71 167 -168 0
82 168 -169 0
93 169 -170 0
104 170 -171 0
5 -162 0
171 115 0
-16 -162 0
-27 -163 0
-38 -164 0
-49 -165 0
-60 -166 0
-71 -167 0
-82 -168 0
-93 -169 0
-104 -170 0
-115 -171 0
-6 172 0
-17 173 0
-28 174 0
-39 175 0
-50 176 0
-61 177 0
-72 178 0
-83 179 0
-94 180 0
-105 181 0
-172 173 0
-173 174 0
-174 175 0
-175 176 0
-176 177 0
-177 178 0
-178 179 0
-179 180 0
-180 181 0
17 172 -173 0
28 173 -174 0
39 174 -175 0
50 175 -176 0
61 176 -177 0
72 177 -178 0
83 178 -179 0
94 179 -180 0
105 180 -181 0
6 -172 0
181 116 0
-17 -172 0
-28 -173 0
-39 -174 0
-50 -175 0
-61 -176 0
-72 -177 0
-83 -178 0
-94 -179 0
-105 -180 0
-116 -181 0
-7 182 0
-18 183 0
-29 184 0
-40 185 0
-51 186 0
-62 187 0
-73 188 0
-84 189 0
-95 190 0
-106 191 0
-182 183 0
-183 184 0
-184 185 0
-185 186 0
-186 187 0
-187 188 0
-188 189 0
-189 190 0
-190 191 0
18 182 -183 0
29 183 -184 0
40 184 -185 0
51 185 -186 0
62 186 -187 0
73 187 -188 0
84 188 -189 0
95 189 -190 0
106 190 -191 0
7 -182 0
191 117 0
-18 -182 0
-29 -183 0
-40 -184 0
-51 -185 0
-62 -186 0
-73 -187 0
-84 -188 0
-95 -189 0
-106 -190 0
-117 -191 0
-8 192 0
-19 193 0
-30 194 0
-41 195 0
-52 196 0
-63 197 0
-74 198 0
-85 199 0
-96 200 0
-107 201 0
-192 193 0
-193 194 0
-194 195 0
-195 196 0
-196 197 0
-197 198 0
-198 199 0
-199 200 0
-200 201 0
19 192 -193 0
30 193 -194 0
41 194 -195 0
52 195 -196 0
63 196 -197 0
74 197 -198 0
85 198 -199 0
96 199 -200 0
107 200 -201 0
8 -192 0
201 118 0
-19 -192 0
-30 -193 0
-41 -194 0
-52 -195 0
-63 -196 0
-74 -197 0
-85 -198 0
-96 -199 0
-107 -200 0
-118 -201 0
-9 202 0
-20 203 0
-31 204 0
-42 205 0
-53 206 0
-64 207 0
-75 208 0
-86 209 0
-97 210 0
-108 211 0
-202 203 0
-203 204 0
-204 205 0
-205 206 0
-206 207 0
-207 208 0
-208 209 0
-209 210 0
-210 211 0
20 202 -203 0
31 203 -204 0
42 204 -205 0
53 205 -206 0
64 206 -207 0
75 207 -208 0
86 208 -209 0
97 209 -210 0
108 210 -211 0
9 -202 0
211 119 0
-20 -202 0
-31 -203 0
-42 -204 0
-53 -205 0
-64 -206 0
-75 -207 0
-86 -208 0
-97 -209 0
-108 -210 0
-119 -211 0
-10 212 0
-21 213 0
-32 214 0
-43 215 0
-54 216 0
-65 217 0
-76 218 0
-87 219 0
-98 220 0
-109 221 0
-212 213 0
-213 214 0
-214 215 0
-215 216 0
-216 217 0
-217 218 0
-218 219 0
-219 220 0
-220 221 0
21 212 -213 0
32 213 -214 0
43 214 -215 0
54 215 -216 0
65 216 -217 0
76 217 -218 0
87 218 -219 0
98 219 -220 0
109 220 -221 0
10 -212 0
221 120 0
-21 -212 0
-32 -213 0
-43 -214 0
-54 -215 0
-65 -216 0
-76 -217 0
-87 -218 0
-98 -219 0
-109 -220 0
-120 -221 0
-11 222 0
-22 223 0
-33 224 0
-44 225 0
-55 226 0
-66 227 0
-77 228 0
-88 229 0
-99 230 0
-110 231 0
-222 223 0
-223 224 0
-224 225 0
-225 226 0
-226 227 0
-227 228 0
-228 229 0
-229 230 0
-230 231 0
22 222 -223 0
33 223 -224 0
44 224 -225 0
55 225 -226 0
66 226 -227 0
77 227 -228 0
88 228 -229 0
99 229 -230 0
110 230 -231 0
11 -222 0
231 121 0
-22 -222 0
-33 -223 0
-44 -224 0
-55 -225 0
-66 -226 0
-77 -227 0
-88 -228 0
-99 -229 0
-110 -230 0
-121 -231 0
-1 232 0
-2 233 0
-3 234 0
-4 235 0
-5 236 0
-6 237 0
-7 238 0
-8 239 0
-9 240 0
-10 241 0
-232 233 0
-233 234 0
-234 235 0
-235 236 0
-236 237 0
-237 238 0
-238 239 0
-239 240 0
-240 241 0
2 232 -233 0
3 233 -234 0
4 234 -235 0
5 235 -236 0
6 236 -237 0
7 237 -238 0
8 238 -239 0
9 239 -240 0
10 240 -241 0
1 -232 0
241 11 0
-2 -232 0
-3 -233 0
-4 -234 0
-5 -235 0
-6 -236 0
-7 -237 0
-8 -238 0
-9 -239 0
-10 -240 0
-11 -241 0
-12 242 0
-13 243 0
-14 244 0
-15 245 0
-16 246 0
-17 247 0
-18 248 0
-19 249 0
-20 250 0
-21 251 0
-242 243 0
-243 244 0
-244 245 0
-245 246 0
-246 247 0
-247 248 0
-248 249 0
-249 250 0
-250 251 0
13 242 -243 0
14 243 -244 0
15 244 -245 0
16 245 -246 0
17 246 -247 0
18 247 -248 0
19 248 -249 0
20 249 -250 0
21 250 -251 0
12 -242 0
251 22 0
-13 -242 0
-14 -243 0
-15 -244 0
-16 -245 0
-17 -246 0
-18 -247 0
-19 -248 0
-20 -249 0
-21 -250 0
-22 -251 0
-23 252 0
-24 253 0
-25 254 0
-26 255 0
-27 256 0
-28 257 0
-29 258 0
-30 259 0
-31 260 0
-32 261 0
-252 253 0
-253 254 0
-254 255 0
-255 256 0
-256 257 0
-257 258 0
-258 259 0
-259 260 0
-260 261 0
24 252 -253 0
25 253 -254 0
26 254 -255 0
27 255 -256 0
28 256 -257 0
29 257 -258 0
30 258 -259 0
31 259 -260 0
32 260 -261 0
23 -252 0
261 33 0
-24 -252 0
-25 -253 0
-26 -254 0
-27 -255 0
-28 -256 0
-29 -257 0
-30 -258 0
-31 -259 0
-32 -260 0
-33 -261 0
-34 262 0
-35 263 0
-36 264 0
-37 265 0
-38 266 0
-39 267 0
-40 268 0
-41 269 0
-42 270 0
-43 271 0
-262 263 0
-263 264 0
-264 265 0
-265 266 0
-266 267 0
-267 268 0
-268 269 0
-269 270 0
-270 271 0
35 262 -263 0
36 263 -264 0
37 264 -265 0
38 265 -266 0
39 266 -267 0
40 267 -268 0
41 268 -269 0
42 269 -270 0
43 270 -271 0
34 -262 0
271 44 0
-35 -262 0
-36 -263 0
-37 -264 0
-38 -265 0
-39 -266 0
-40 -267 0
-41 -268 0
-42 -269 0
-43 -270 0
-44 -271 0
-45 272 0
-46 273 0
-47 274 0
-48 275 0
-49 276 0
-50 277 0
-51 278 0
-52 279 0
-53 280 0
-54 281 0
-272 273 0
-273 274 0
-274 275 0
-275 276 0
-276 277 0
-277 278 0
-278 279 0
-279 280 0
-280 281 0
46 272 -273 0
47 273 -274 0
48 274 -275 0
49 275 -276 0
50 276 -277 0
51 277 -278 0
52 278 -279 0
53 279 -280 0
54 280 -281 0
45 -272 0
281 55 0
-46 -272 0
-47 -273 0
-48 -274 0
-49 -275 0
-50 -276 0
-51 -277 0
-52 -278 0
-53 -279 0
-54 -280 0
-55 -281 0
-56 282 0
-57 283 0
-58 284 0
-59 285 0
-60 286 0
-61 287 0
-62 288 0
-63 289 0
-64 290 0
-65 291 0
-282 283 0
-283 284 0
-284 285 0
-285 286 0
-286 287 0
-287 288 0
-288 289 0
-289 290 0
-290 291 0
57 282 -283 0
58 283 -284 0
59 284 -285 0
60 285 -286 0
61 286 -287 0
62 287 -288 0
63 288 -289 0
64 289 -290 0
65 290 -291 0
56 -282 0
291 66 0
-57 -282 0
-58 -283 0
-59 -284 0
-60 -285 0
-61 -286 0
-62 -287 0
-63 -288 0
-64 -289 0
-65 -290 0
-66 -291 0
-67 292 0
-68 293 0
-69 294 0
-70 295 0
-71 296 0
-72 297 0
-73 298 0
-74 299 0
-75 300 0
-76 301 0
-292 293 0
-293 294 0
-294 295 0
-295 296 0
-296 297 0
-297 298 0
-298 299 0
-299 300 0
-300 301 0
68 292 -293 0
69 293 -294 0
70 294 -295 0
71 295 -296 0
72 296 -297 0
73 297 -298 0
74 298 -299 0
75 299 -300 0
76 300 -301 0
67 -292 0
301 77 0
-68 -292 0
-69 -293 0
-70 -294 0
-71 -295 0
-72 -296 0
-73 -297 0
-74 -298 0
-75 -299 0
-76 -300 0
-77 -301 0
-78 302 0
-79 303 0
-80 304 0
-81 305 0
-82 306 0
-83 307 0
-84 308 0
-85 309 0
-86 310 0
-87 311 0
-302 303 0
-303 304 0
-304 305 0
-305 306 0
-306 307 0
-307 308 0
-308 309 0
-309 310 0
-310 311 0
79 302 -303 0
80 303 -304 0
81 304 -305 0
82 305 -306 0
83 306 -307 0
84 307 -308 0
85 308 -309 0
86 309 -310 0
87 310 -311 0
78 -302 0
311 88 0
-79 -302 0
-80 -303 0
-81 -304 0
-82 -305 0
-83 -306 0
-84 -307 0
-85 -308 0
-86 -309 0
-87 -310 0
-88 -311 0
-89 312 0
-90 313 0
-91 314 0
-92 315 0
-93 316 0
-94 317 0
-95 318 0
-96 319 0
-97 320 0
-98 321 0
-312 313 0
-313 314 0
-314 315 0
-315 316 0
-316 317 0
-317 318 0
-318 319 0
-319 320 0
-320 321 0
90 312 -313 0
91 313 -314 0
92 314 -315 0
93 315 -316 0
94 316 -317 0
95 317 -318 0
96 318 -319 0
97 319 -320 0
98 320 -321 0
89 -312 0
321 99 0
-90 -312 0
-91 -313 0
-92 -314 0
-93 -315 0
-94 -316 0
-95 -317 0
-96 -318 0
-97 -319 0
-98 -320 0
-99 -321 0
-100 322 0
-101 323 0
-102 324 0
-103 325 0
-104 326 0
-105 327 0
-106 328 0
-107 329 0
-108 330 0
-109 331 0
-322 323 0
-323 324 0
-324 325 0
-325 326 0
-326 327 0
-327 328 0
-328 329 0
-329 330 0
-330 331 0
101 322 -323 0
102 323 -324 0
103 324 -325 0
104 325 -326 0
105 326 -327 0
106 327 -328 0
107 328 -329 0
108 329 -330 0
109 330 -331 0
100 -322 0
331 110 0
-101 -322 0
-102 -323 0
-103 -324 0
-104 -325 0
-105 -326 0
-106 -327 0
-107 -328 0
-108 -329 0
-109 -330 0
-110 -331 0
-111 332 0
-112 333 0
-113 334 0
-114 335 0
-115 336 0
-116 337 0
-117 338 0
-118 339 0
-119 340 0
-120 341 0
-332 333 0
-333 334 0
-334 335 0
-335 336 0
-336 337 0
-337 338 0
-338 339 0
-339 340 0
-340 341 0
112 332 -333 0
113 333 -334 0
114 334 -335 0
115 335 -336 0
116 336 -337 0
117 337 -338 0
118 338 -339 0
119 339 -340 0
120 340 -341 0
111 -332 0
341 121 0
-112 -332 0
-113 -333 0
-114 -334 0
-115 -335 0
-116 -336 0
-117 -337 0
-118 -338 0
-119 -339 0
-120 -340 0
-121 -341 0
-5 342 0
-4 343 0
-3 344 0
-2 345 0
-342 343 0
-343 344 0
-344 345 0
-1 -345 0
-2 -344 0
-3 -343 0
-4 -342 0
-6 346 0
-7 347 0
-8 348 0
-9 349 0
-346 347 0
-347 348 0
-348 349 0
-10 -349 0
-9 -348 0
-8 -347 0
-7 -346 0
-10 350 0
-9 351 0
-8 352 0
-7 353 0
-350 351 0
-351 352 0
-352 353 0
-11 354 0
-16 355 0
-15 356 0
-14 357 0
-13 358 0
-355 356 0
-356 357 0
-357 358 0
-12 -358 0
-13 -357 0
-14 -356 0
-15 -355 0
-17 359 0
-18 360 0
-19 361 0
-20 362 0
-359 360 0
-360 361 0
-361 362 0
-21 -362 0
-20 -361 0
-19 -360 0
-18 -359 0
-21 363 0
-20 364 0
-19 365 0
-18 366 0
-363 364 0
-364 365 0
-365 366 0
-22 367 0
-27 368 0
-26 369 0
-25 370 0
-24 371 0
-368 369 0
-369 370 0
-370 371 0
-23 -371 0
-24 -370 0
-25 -369 0
-26 -368 0
-28 372 0
-29 373 0
-30 374 0
-31 375 0
-372 373 0
-373 374 0
-374 375 0
-32 -375 0
-31 -374 0
-30 -373 0
-29 -372 0
-32 376 0
-31 377 0
-30 378 0
-29 379 0
-376 377 0
-377 378 0
-378 379 0
-33 380 0
-38 381 0
-37 382 0
-36 383 0
-35 384 0
-381 382 0
-382 383 0
-383 384 0
-34 -384 0
-35 -383 0
-36 -382 0
-37 -381 0
-39 385 0
-40 386 0
-41 387 0
-42 388 0
-385 386 0
-386 387 0
-387 388 0
-43 -388 0
-42 -387 0
-41 -386 0
-40 -385 0
-43 389 0
-42 390 0
-41 391 0
-40 392 0
-389 390 0
-390 391 0
-391 392 0
-44 393 0
-49 394 0
-48 395 0
-47 396 0
-46 397 0
-394 395 0
-395 396 0
-396 397 0
-45 -397 0
-46 -396 0
-47 -395 0
-48 -394 0
-50 398 0
-51 399 0
-52 400 0
-53 401 0
-398 399 0
-399 400 0
-400 401 0
-54 -401 0
-53 -400 0
-52 -399 0
-51 -398 0
-54 402 0
-53 403 0
-52 404 0
-51 405 0
-402 403 0
-403 404 0
-404 405 0
-55 406 0
-60 407 0
-59 408 0
-58 409 0
-57 410 0
-407 408 0
-408 409 0
-409 410 0
-56 -410 0
-57 -409 0
-58 -408 0
-59 -407 0
-61 411 0
-62 412 0
-63 413 0
-64 414 0
-411 412 0
-412 413 0
-413 414 0
-65 -414 0
-64 -413 0
-63 -412 0
-62 -411 0
-65 415 0
-64 416 0
-63 417 0
-62 418 0
-415 416 0
-416 417 0
-417 418 0
-66 419 0
-71 420 0
-70 421 0
-69 422 0
-68 423 0
-420 421 0
-421 422 0
-422 423 0
-67 -423 0
-68 -422 0
-69 -421 0
-70 -420 0
-72 424 0
-73 425 0
-74 426 0
-75 427 0
-424 425 0
-425 426 0
-426 427 0
-76 -427 0
-75 -426 0
-74 -425 0
-73 -424 0
-76 428 0
-75 429 0
-74 430 0
-73 431 0
-428 429 0
-429 430 0
-430 431 0
-77 432 0
-82 433 0
-81 434 0
-80 435 0
-79 436 0
-433 434 0
-434 435 0
-435 436 0
-78 -436 0
-79 -435 0
-80 -434 0
-81 -433 0
-83 437 0
-84 438 0
-85 439 0
-86 440 0
-437 438 0
-438 439 0
-439 440 0
-87 -440 0
-86 -439 0
-85 -438 0
-84 -437 0
-87 441 0
-86 442 0
-85 443 0
-84 444 0
-441 442 0
-442 443 0
-443 444 0
-88 445 0
-93 446 0
-92 447 0
-91 448 0
-90 449 0
-446 447 0
-447 448 0
-448 449 0
-89 -449 0
-90 -448 0
-91 -447 0
-92 -446 0
-94 450 0
-95 451 0
-96 452 0
-97 453 0
-450 451 0
-451 452 0
-452 453 0
-98 -453 0
-97 -452 0
-96 -451 0
-95 -450 0
-98 454 0
-97 455 0
-96 456 0
-95 457 0
-454 455 0
-455 456 0
-456 457 0
-99 458 0
-104 459 0
-103 460 0
-102 461 0
-101 462 0
-459 460 0
-460 461 0
-461 462 0
-100 -462 0
-101 -461 0
-102 -460 0
-103 -459 0
-105 463 0
-106 464 0
-107 465 0
-108 466 0
-463 464 0
-464 465 0
-465 466 0
-109 -466 0
-108 -465 0
-107 -464 0
-106 -463 0
-109 467 0
-108 468 0
-107 469 0
-106 470 0
-467 468 0
-468 469 0
-469 470 0
-110 471 0
-115 472 0
-114 473 0
-113 474 0
-112 475 0
-472 473 0
-473 474 0
-474 475 0
-111 -475 0
-112 -474 0
-113 -473 0
-114 -472 0
-116 476 0
-117 477 0
-118 478 0
-119 479 0
-476 477 0
-477 478 0
-478 479 0
-120 -479 0
-119 -478 0
-118 -477 0
-117 -476 0
-120 480 0
-119 481 0
-118 482 0
-117 483 0
-480 481 0
-481 482 0
-482 483 0
-121 484 0
